c FILE: homer.col
c Translated from Stanford GraphBase File: homer.gb
c Stanford GraphBase ID: book(?homer?,561,0,1,24,0,0,0)
p edge 561 3258
e 1 452
e 1 447
e 1 549
e 1 555
e 1 99
e 1 485
e 1 85
e 1 164
e 1 178
e 1 335
e 1 135
e 1 35
e 1 119
e 1 86
e 1 497
e 1 152
e 2 276
e 2 449
e 2 64
e 2 244
e 2 391
e 2 447
e 2 151
e 2 445
e 2 259
e 2 211
e 3 498
e 4 457
e 4 411
e 5 244
e 5 88
e 5 528
e 5 295
e 5 285
e 6 44
e 6 244
e 6 165
e 7 262
e 8 406
e 8 61
e 9 457
e 10 114
e 10 310
e 10 422
e 10 321
e 10 317
e 11 416
e 11 83
e 11 76
e 11 349
e 11 219
e 11 49
e 11 78
e 11 517
e 12 61
e 12 85
e 12 164
e 12 178
e 12 177
e 12 259
e 12 218
e 12 62
e 13 416
e 13 549
e 13 524
e 13 526
e 14 202
e 15 244
e 15 356
e 15 398
e 15 558
e 15 508
e 15 465
e 15 243
e 15 487
e 15 159
e 16 429
e 17 445
e 17 244
e 17 510
e 17 496
e 17 416
e 17 549
e 17 150
e 17 336
e 17 78
e 17 49
e 17 498
e 17 207
e 17 53
e 17 204
e 17 262
e 18 44
e 19 531
e 19 184
e 19 451
e 19 384
e 19 510
e 19 209
e 19 351
e 20 492
e 21 361
e 22 361
e 23 202
e 24 510
e 24 276
e 25 30
e 25 416
e 25 247
e 25 361
e 25 285
e 25 433
e 25 57
e 25 227
e 25 292
e 25 492
e 25 528
e 26 418
e 26 150
e 27 528
e 27 239
e 28 549
e 28 452
e 29 376
e 30 25
e 30 247
e 30 416
e 30 555
e 30 222
e 31 521
e 31 61
e 32 408
e 32 69
e 32 222
e 32 300
e 32 369
e 32 560
e 32 152
e 32 368
e 32 35
e 33 312
e 33 392
e 34 108
e 34 378
e 34 496
e 34 367
e 34 297
e 34 147
e 34 416
e 34 165
e 35 160
e 35 159
e 35 61
e 35 408
e 35 69
e 35 222
e 35 300
e 35 369
e 35 32
e 35 560
e 35 368
e 35 340
e 35 327
e 35 452
e 35 161
e 35 196
e 35 291
e 35 261
e 35 40
e 35 341
e 35 254
e 35 244
e 35 152
e 35 528
e 35 123
e 35 450
e 35 323
e 35 99
e 35 485
e 35 85
e 35 164
e 35 178
e 35 335
e 35 135
e 35 119
e 35 86
e 35 1
e 35 497
e 36 452
e 37 202
e 38 234
e 38 511
e 38 473
e 38 61
e 39 184
e 39 168
e 40 123
e 40 452
e 40 340
e 40 160
e 40 161
e 40 35
e 40 341
e 41 202
e 42 405
e 42 267
e 42 526
e 42 203
e 42 452
e 43 165
e 44 512
e 44 424
e 44 244
e 44 526
e 44 218
e 44 345
e 44 154
e 44 400
e 44 285
e 44 150
e 44 276
e 44 134
e 44 161
e 44 452
e 44 492
e 44 561
e 44 510
e 44 6
e 44 165
e 44 18
e 44 549
e 44 528
e 44 329
e 45 62
e 46 452
e 46 416
e 46 496
e 46 410
e 46 367
e 46 361
e 46 218
e 46 514
e 46 104
e 46 553
e 46 192
e 46 330
e 47 416
e 48 362
e 48 297
e 49 311
e 49 141
e 49 534
e 49 83
e 49 11
e 49 76
e 49 349
e 49 219
e 49 517
e 49 342
e 49 336
e 49 78
e 49 498
e 49 207
e 49 53
e 49 204
e 49 17
e 49 262
e 50 202
e 50 502
e 50 348
e 50 155
e 50 425
e 50 183
e 50 152
e 50 203
e 50 452
e 51 285
e 51 452
e 52 452
e 53 336
e 53 78
e 53 49
e 53 498
e 53 207
e 53 204
e 53 17
e 53 262
e 54 60
e 54 244
e 55 400
e 55 285
e 55 345
e 56 528
e 57 433
e 57 227
e 57 25
e 57 292
e 57 492
e 57 528
e 58 280
e 58 452
e 59 212
e 60 54
e 60 244
e 61 35
e 61 12
e 61 482
e 61 526
e 61 186
e 61 428
e 61 462
e 61 316
e 61 365
e 61 202
e 61 244
e 61 319
e 61 483
e 61 286
e 61 281
e 61 445
e 61 151
e 61 521
e 61 31
e 61 62
e 61 169
e 61 525
e 61 441
e 61 8
e 61 249
e 61 406
e 61 504
e 61 402
e 61 145
e 61 174
e 61 161
e 61 361
e 61 285
e 61 452
e 61 497
e 61 218
e 61 114
e 61 310
e 61 321
e 61 401
e 61 259
e 61 211
e 61 154
e 61 447
e 61 473
e 61 38
e 61 510
e 61 159
e 61 136
e 61 391
e 61 276
e 61 424
e 61 538
e 61 541
e 62 130
e 62 169
e 62 61
e 62 73
e 62 492
e 62 66
e 62 12
e 62 45
e 62 538
e 62 286
e 62 276
e 62 120
e 62 318
e 63 387
e 64 244
e 64 2
e 64 263
e 64 549
e 64 285
e 64 189
e 64 491
e 64 545
e 64 277
e 64 314
e 64 353
e 64 381
e 64 387
e 64 452
e 64 114
e 64 154
e 65 526
e 66 169
e 66 276
e 66 130
e 66 286
e 66 62
e 67 321
e 67 401
e 68 465
e 68 487
e 69 408
e 69 222
e 69 300
e 69 369
e 69 32
e 69 560
e 69 152
e 69 368
e 69 35
e 70 492
e 70 519
e 71 423
e 72 297
e 72 99
e 72 74
e 73 62
e 73 492
e 74 510
e 74 299
e 74 340
e 74 99
e 74 72
e 75 203
e 76 83
e 76 11
e 76 349
e 76 219
e 76 49
e 76 78
e 76 517
e 77 452
e 77 320
e 78 103
e 78 414
e 78 235
e 78 83
e 78 11
e 78 76
e 78 349
e 78 219
e 78 517
e 78 336
e 78 49
e 78 498
e 78 207
e 78 53
e 78 204
e 78 17
e 78 262
e 79 518
e 79 274
e 80 162
e 81 154
e 82 496
e 83 555
e 83 11
e 83 76
e 83 349
e 83 219
e 83 49
e 83 78
e 83 517
e 84 452
e 85 177
e 85 12
e 85 99
e 85 485
e 85 164
e 85 178
e 85 335
e 85 135
e 85 35
e 85 119
e 85 86
e 85 1
e 86 447
e 86 99
e 86 485
e 86 85
e 86 164
e 86 178
e 86 335
e 86 135
e 86 35
e 86 119
e 86 1
e 87 203
e 87 285
e 87 405
e 87 526
e 88 244
e 88 5
e 88 528
e 89 549
e 89 202
e 90 476
e 91 416
e 92 557
e 94 165
e 95 244
e 95 475
e 95 400
e 95 452
e 95 489
e 95 356
e 95 365
e 95 202
e 95 95
e 95 95
e 96 340
e 96 452
e 97 496
e 98 274
e 98 398
e 99 152
e 99 72
e 99 74
e 99 528
e 99 549
e 99 165
e 99 485
e 99 85
e 99 164
e 99 178
e 99 335
e 99 135
e 99 35
e 99 119
e 99 86
e 99 1
e 100 321
e 101 471
e 101 244
e 102 363
e 102 426
e 102 554
e 102 479
e 102 542
e 102 137
e 102 244
e 103 78
e 104 267
e 104 553
e 104 192
e 104 46
e 104 330
e 105 244
e 106 518
e 107 468
e 107 244
e 108 34
e 108 378
e 108 496
e 108 367
e 108 297
e 108 147
e 108 416
e 108 165
e 108 445
e 108 528
e 108 244
e 108 202
e 108 415
e 108 380
e 109 391
e 109 424
e 110 202
e 111 281
e 111 447
e 112 367
e 112 472
e 112 260
e 112 405
e 113 555
e 114 549
e 114 285
e 114 189
e 114 491
e 114 545
e 114 277
e 114 314
e 114 353
e 114 381
e 114 387
e 114 298
e 114 528
e 114 259
e 114 452
e 114 267
e 114 526
e 114 203
e 114 361
e 114 64
e 114 228
e 114 61
e 114 10
e 114 150
e 114 154
e 115 264
e 115 497
e 115 132
e 115 480
e 117 202
e 117 244
e 117 415
e 117 165
e 117 285
e 117 398
e 118 495
e 118 150
e 119 447
e 119 99
e 119 485
e 119 85
e 119 164
e 119 178
e 119 335
e 119 135
e 119 35
e 119 86
e 119 1
e 120 62
e 121 202
e 122 526
e 123 340
e 123 160
e 123 161
e 123 40
e 123 244
e 123 159
e 123 150
e 123 549
e 123 528
e 123 380
e 123 452
e 123 285
e 123 35
e 124 202
e 125 150
e 125 528
e 125 549
e 125 253
e 125 185
e 126 391
e 126 150
e 126 313
e 126 231
e 127 264
e 128 259
e 128 530
e 129 361
e 130 66
e 130 62
e 131 308
e 131 165
e 131 150
e 132 202
e 132 244
e 132 480
e 132 264
e 132 497
e 132 115
e 132 365
e 132 386
e 133 374
e 134 211
e 134 259
e 134 161
e 134 44
e 135 99
e 135 485
e 135 85
e 135 164
e 135 178
e 135 335
e 135 35
e 135 119
e 135 86
e 135 1
e 136 528
e 136 61
e 137 363
e 137 426
e 137 102
e 137 554
e 137 479
e 137 542
e 137 244
e 138 244
e 139 332
e 139 263
e 140 269
e 140 397
e 141 49
e 142 496
e 143 452
e 144 285
e 145 174
e 145 61
e 146 464
e 146 551
e 147 108
e 147 34
e 147 367
e 147 297
e 147 416
e 147 536
e 147 528
e 147 400
e 147 285
e 147 555
e 147 549
e 147 150
e 147 165
e 147 492
e 147 378
e 147 410
e 147 171
e 147 496
e 147 385
e 147 357
e 148 496
e 148 510
e 149 506
e 150 416
e 150 17
e 150 244
e 150 152
e 150 301
e 150 185
e 150 125
e 150 131
e 150 308
e 150 283
e 150 350
e 150 147
e 150 460
e 150 419
e 150 452
e 150 533
e 150 123
e 150 367
e 150 498
e 150 496
e 150 114
e 150 242
e 150 331
e 150 211
e 150 44
e 150 276
e 150 259
e 150 447
e 150 526
e 150 418
e 150 26
e 150 495
e 150 118
e 150 546
e 150 326
e 150 258
e 150 201
e 150 208
e 150 126
e 150 231
e 150 510
e 150 162
e 150 376
e 150 549
e 150 165
e 150 400
e 150 285
e 150 555
e 150 492
e 150 528
e 151 159
e 151 447
e 151 2
e 151 211
e 151 259
e 151 61
e 151 526
e 151 445
e 152 408
e 152 69
e 152 300
e 152 369
e 152 32
e 152 560
e 152 368
e 152 510
e 152 276
e 152 157
e 152 502
e 152 348
e 152 155
e 152 425
e 152 183
e 152 50
e 152 203
e 152 309
e 152 188
e 152 416
e 152 496
e 152 410
e 152 171
e 152 357
e 152 555
e 152 526
e 152 222
e 152 267
e 152 464
e 152 498
e 152 207
e 152 150
e 152 437
e 152 492
e 152 35
e 152 99
e 152 180
e 152 447
e 152 196
e 152 452
e 152 549
e 152 1
e 153 400
e 154 287
e 154 281
e 154 259
e 154 202
e 154 267
e 154 526
e 154 203
e 154 44
e 154 345
e 154 161
e 154 361
e 154 285
e 154 81
e 154 64
e 154 310
e 154 290
e 154 61
e 154 198
e 154 452
e 154 114
e 155 502
e 155 348
e 155 425
e 155 183
e 155 50
e 155 203
e 155 152
e 155 452
e 156 528
e 156 215
e 157 152
e 158 452
e 159 452
e 159 123
e 159 35
e 159 151
e 159 391
e 159 218
e 159 510
e 159 276
e 159 15
e 159 487
e 159 211
e 159 412
e 159 431
e 159 61
e 160 123
e 160 35
e 160 340
e 160 161
e 160 40
e 160 447
e 160 163
e 160 396
e 160 452
e 161 123
e 161 340
e 161 160
e 161 40
e 161 35
e 161 244
e 161 510
e 161 496
e 161 297
e 161 480
e 161 555
e 161 400
e 161 61
e 161 345
e 161 154
e 161 165
e 161 285
e 161 501
e 161 526
e 161 259
e 161 134
e 161 211
e 161 549
e 161 44
e 161 452
e 162 366
e 162 507
e 162 389
e 162 80
e 162 377
e 162 376
e 162 150
e 163 160
e 163 452
e 164 177
e 164 12
e 164 99
e 164 485
e 164 85
e 164 178
e 164 335
e 164 135
e 164 35
e 164 119
e 164 86
e 164 1
e 165 108
e 165 34
e 165 378
e 165 416
e 165 397
e 165 230
e 165 403
e 165 217
e 165 440
e 165 552
e 165 94
e 165 436
e 165 161
e 165 395
e 165 352
e 165 131
e 165 308
e 165 350
e 165 147
e 165 202
e 165 117
e 165 398
e 165 367
e 165 498
e 165 496
e 165 245
e 165 383
e 165 360
e 165 304
e 165 346
e 165 302
e 165 223
e 165 467
e 165 43
e 165 345
e 165 452
e 165 99
e 165 297
e 165 549
e 165 150
e 165 400
e 165 285
e 165 555
e 165 492
e 165 528
e 165 244
e 165 6
e 165 44
e 165 415
e 165 510
e 165 329
e 165 372
e 166 202
e 167 251
e 167 492
e 168 184
e 168 39
e 169 66
e 169 276
e 169 62
e 169 61
e 170 462
e 170 521
e 170 286
e 170 393
e 171 416
e 171 555
e 171 267
e 171 152
e 171 526
e 171 222
e 171 378
e 171 410
e 171 496
e 171 385
e 171 357
e 171 147
e 172 198
e 173 555
e 174 145
e 174 61
e 175 452
e 176 317
e 176 512
e 176 321
e 177 85
e 177 164
e 177 178
e 177 12
e 177 512
e 178 177
e 178 12
e 178 99
e 178 485
e 178 85
e 178 164
e 178 335
e 178 135
e 178 35
e 178 119
e 178 86
e 178 1
e 179 240
e 179 507
e 179 389
e 180 152
e 181 452
e 182 452
e 183 416
e 183 502
e 183 348
e 183 155
e 183 425
e 183 50
e 183 203
e 183 152
e 183 452
e 184 19
e 184 168
e 184 39
e 184 393
e 184 445
e 184 321
e 185 150
e 185 253
e 185 125
e 186 538
e 186 61
e 186 276
e 187 306
e 188 434
e 188 152
e 188 496
e 188 549
e 189 549
e 189 285
e 189 545
e 189 277
e 189 314
e 189 64
e 189 353
e 189 381
e 189 114
e 189 387
e 189 452
e 189 491
e 190 528
e 191 361
e 192 104
e 192 553
e 192 46
e 192 330
e 193 202
e 194 538
e 194 525
e 195 202
e 196 202
e 196 35
e 196 261
e 196 457
e 196 244
e 196 208
e 196 152
e 197 452
e 198 154
e 198 172
e 199 416
e 199 452
e 200 361
e 201 150
e 202 196
e 202 457
e 202 132
e 202 264
e 202 14
e 202 555
e 202 528
e 202 424
e 202 526
e 202 277
e 202 549
e 202 89
e 202 50
e 202 259
e 202 474
e 202 539
e 202 41
e 202 438
e 202 226
e 202 373
e 202 124
e 202 37
e 202 540
e 202 61
e 202 496
e 202 499
e 202 400
e 202 463
e 202 154
e 202 458
e 202 275
e 202 279
e 202 484
e 202 121
e 202 333
e 202 337
e 202 193
e 202 294
e 202 481
e 202 166
e 202 559
e 202 452
e 202 23
e 202 195
e 202 365
e 202 306
e 202 498
e 202 397
e 202 230
e 202 207
e 202 492
e 202 110
e 202 95
e 202 117
e 202 165
e 202 285
e 202 398
e 202 108
e 202 244
e 202 415
e 202 380
e 203 330
e 203 528
e 203 259
e 203 297
e 203 288
e 203 265
e 203 247
e 203 87
e 203 285
e 203 75
e 203 114
e 203 154
e 203 502
e 203 348
e 203 155
e 203 425
e 203 183
e 203 152
e 203 50
e 203 405
e 203 267
e 203 42
e 203 526
e 203 452
e 204 526
e 204 336
e 204 78
e 204 49
e 204 498
e 204 207
e 204 53
e 204 17
e 204 262
e 205 361
e 206 549
e 207 202
e 207 255
e 207 533
e 207 492
e 207 152
e 207 380
e 207 336
e 207 78
e 207 49
e 207 498
e 207 53
e 207 204
e 207 17
e 207 262
e 208 196
e 208 526
e 208 150
e 208 549
e 208 510
e 208 259
e 209 451
e 209 384
e 209 510
e 209 19
e 210 445
e 210 549
e 211 2
e 211 151
e 211 445
e 211 276
e 211 461
e 211 344
e 211 422
e 211 443
e 211 61
e 211 225
e 211 150
e 211 501
e 211 452
e 211 549
e 211 134
e 211 259
e 211 159
e 211 516
e 211 307
e 211 447
e 211 510
e 211 161
e 211 420
e 211 357
e 211 385
e 212 59
e 213 285
e 214 545
e 215 156
e 215 431
e 216 416
e 217 165
e 218 365
e 218 397
e 218 526
e 218 244
e 218 391
e 218 159
e 218 510
e 218 319
e 218 483
e 218 286
e 218 497
e 218 44
e 218 281
e 218 528
e 218 464
e 218 555
e 218 416
e 218 496
e 218 410
e 218 367
e 218 330
e 218 46
e 218 361
e 218 400
e 218 285
e 218 506
e 218 276
e 218 12
e 218 259
e 218 61
e 218 424
e 219 496
e 219 416
e 219 83
e 219 11
e 219 76
e 219 349
e 219 49
e 219 78
e 219 517
e 220 345
e 220 361
e 220 285
e 221 303
e 221 528
e 222 408
e 222 69
e 222 369
e 222 32
e 222 560
e 222 35
e 222 300
e 222 416
e 222 410
e 222 171
e 222 357
e 222 267
e 222 152
e 222 526
e 222 30
e 222 555
e 222 496
e 222 517
e 222 368
e 223 165
e 224 285
e 225 211
e 226 202
e 227 433
e 227 57
e 227 25
e 227 292
e 227 492
e 227 528
e 228 114
e 229 361
e 230 397
e 230 202
e 230 244
e 230 165
e 230 492
e 231 150
e 231 313
e 231 126
e 232 424
e 232 391
e 233 528
e 233 268
e 234 511
e 234 473
e 234 38
e 235 78
e 236 361
e 237 361
e 239 286
e 239 432
e 239 27
e 240 179
e 240 507
e 240 389
e 241 361
e 242 331
e 242 150
e 243 15
e 244 123
e 244 475
e 244 17
e 244 400
e 244 132
e 244 264
e 244 259
e 244 267
e 244 363
e 244 426
e 244 102
e 244 554
e 244 479
e 244 542
e 244 137
e 244 64
e 244 2
e 244 457
e 244 196
e 244 161
e 244 54
e 244 60
e 244 459
e 244 470
e 244 529
e 244 273
e 244 468
e 244 107
e 244 105
e 244 379
e 244 452
e 244 291
e 244 448
e 244 370
e 244 421
e 244 218
e 244 316
e 244 526
e 244 95
e 244 555
e 244 549
e 244 150
e 244 44
e 244 497
e 244 416
e 244 365
e 244 61
e 244 356
e 244 558
e 244 15
e 244 508
e 244 230
e 244 255
e 244 35
e 244 88
e 244 5
e 244 138
e 244 117
e 244 285
e 244 398
e 244 382
e 244 101
e 244 471
e 244 165
e 244 6
e 244 397
e 244 424
e 244 396
e 244 108
e 244 202
e 244 415
e 244 380
e 244 492
e 244 510
e 244 561
e 244 528
e 244 276
e 245 165
e 246 482
e 246 483
e 246 276
e 247 203
e 247 30
e 247 416
e 247 25
e 247 361
e 247 285
e 248 361
e 249 406
e 249 61
e 250 285
e 251 167
e 251 492
e 252 285
e 253 185
e 253 125
e 254 35
e 254 488
e 254 361
e 255 244
e 255 207
e 255 492
e 256 281
e 257 549
e 258 150
e 259 537
e 259 538
e 259 244
e 259 267
e 259 2
e 259 202
e 259 154
e 259 114
e 259 203
e 259 297
e 259 480
e 259 555
e 259 285
e 259 497
e 259 276
e 259 445
e 259 151
e 259 364
e 259 128
e 259 530
e 259 12
e 259 218
e 259 452
e 259 368
e 259 510
e 259 61
e 259 447
e 259 134
e 259 211
e 259 150
e 259 286
e 259 526
e 259 161
e 259 208
e 259 329
e 260 112
e 260 405
e 261 327
e 261 196
e 261 291
e 261 35
e 262 345
e 262 400
e 262 452
e 262 336
e 262 78
e 262 49
e 262 498
e 262 207
e 262 53
e 262 204
e 262 17
e 262 7
e 263 332
e 263 139
e 263 64
e 264 202
e 264 244
e 264 480
e 264 115
e 264 132
e 264 497
e 264 127
e 265 203
e 266 361
e 267 244
e 267 259
e 267 104
e 267 114
e 267 154
e 267 368
e 267 416
e 267 496
e 267 410
e 267 171
e 267 357
e 267 555
e 267 222
e 267 464
e 267 152
e 267 405
e 267 42
e 267 526
e 267 203
e 267 452
e 267 466
e 268 233
e 269 508
e 269 413
e 269 397
e 269 140
e 270 528
e 271 427
e 271 527
e 271 345
e 272 452
e 273 244
e 274 79
e 274 521
e 274 286
e 274 98
e 274 398
e 275 202
e 276 424
e 276 152
e 276 2
e 276 445
e 276 159
e 276 365
e 276 169
e 276 66
e 276 428
e 276 259
e 276 211
e 276 186
e 276 538
e 276 281
e 276 246
e 276 482
e 276 483
e 276 447
e 276 497
e 276 528
e 276 218
e 276 44
e 276 150
e 276 24
e 276 443
e 276 62
e 276 391
e 276 61
e 276 510
e 276 244
e 277 202
e 277 549
e 277 285
e 277 189
e 277 491
e 277 545
e 277 314
e 277 64
e 277 353
e 277 381
e 277 114
e 277 387
e 277 452
e 277 334
e 278 285
e 279 202
e 280 58
e 280 452
e 281 154
e 281 287
e 281 218
e 281 61
e 281 111
e 281 256
e 281 276
e 282 528
e 283 150
e 284 361
e 285 510
e 285 416
e 285 526
e 285 476
e 285 189
e 285 491
e 285 545
e 285 277
e 285 314
e 285 64
e 285 353
e 285 381
e 285 114
e 285 387
e 285 278
e 285 51
e 285 494
e 285 259
e 285 297
e 285 480
e 285 550
e 285 87
e 285 203
e 285 218
e 285 61
e 285 154
e 285 224
e 285 345
e 285 220
e 285 55
e 285 250
e 285 509
e 285 213
e 285 547
e 285 328
e 285 147
e 285 202
e 285 244
e 285 415
e 285 117
e 285 398
e 285 25
e 285 247
e 285 361
e 285 541
e 285 123
e 285 380
e 285 452
e 285 44
e 285 367
e 285 498
e 285 496
e 285 144
e 285 161
e 285 296
e 285 295
e 285 5
e 285 252
e 285 549
e 285 165
e 285 150
e 285 400
e 285 555
e 285 492
e 285 528
e 286 452
e 286 319
e 286 483
e 286 61
e 286 218
e 286 432
e 286 239
e 286 462
e 286 170
e 286 521
e 286 274
e 286 66
e 286 259
e 286 62
e 287 154
e 287 281
e 288 203
e 289 391
e 289 424
e 290 154
e 291 35
e 291 261
e 291 244
e 292 433
e 292 57
e 292 227
e 292 25
e 292 492
e 292 528
e 293 405
e 294 202
e 295 285
e 295 5
e 296 285
e 297 108
e 297 34
e 297 378
e 297 496
e 297 367
e 297 147
e 297 416
e 297 355
e 297 322
e 297 442
e 297 203
e 297 161
e 297 259
e 297 452
e 297 480
e 297 555
e 297 285
e 297 362
e 297 48
e 297 72
e 297 165
e 298 114
e 299 510
e 299 74
e 299 340
e 300 408
e 300 69
e 300 369
e 300 32
e 300 560
e 300 152
e 300 368
e 300 35
e 300 359
e 300 222
e 301 150
e 302 165
e 303 221
e 303 528
e 304 165
e 305 510
e 306 397
e 306 202
e 306 187
e 307 211
e 307 516
e 308 131
e 308 165
e 308 150
e 309 453
e 309 152
e 310 445
e 310 154
e 310 61
e 310 10
e 310 422
e 310 321
e 310 317
e 311 49
e 312 33
e 312 392
e 313 126
e 313 231
e 314 549
e 314 285
e 314 189
e 314 491
e 314 545
e 314 277
e 314 64
e 314 353
e 314 381
e 314 114
e 314 387
e 314 452
e 315 375
e 316 244
e 316 462
e 316 61
e 317 310
e 317 10
e 317 422
e 317 321
e 317 176
e 318 62
e 318 390
e 319 483
e 319 286
e 319 61
e 319 218
e 320 452
e 320 77
e 321 184
e 321 310
e 321 10
e 321 422
e 321 317
e 321 100
e 321 344
e 321 423
e 321 176
e 321 67
e 321 401
e 321 61
e 321 469
e 322 549
e 322 297
e 323 450
e 323 35
e 324 330
e 325 492
e 326 546
e 326 150
e 327 261
e 327 35
e 328 285
e 329 165
e 329 372
e 329 259
e 329 44
e 329 549
e 329 528
e 330 203
e 330 324
e 330 417
e 330 405
e 330 416
e 330 496
e 330 410
e 330 367
e 330 361
e 330 218
e 330 104
e 330 553
e 330 192
e 330 46
e 331 242
e 331 150
e 332 139
e 332 263
e 333 202
e 334 277
e 335 99
e 335 485
e 335 85
e 335 164
e 335 178
e 335 135
e 335 35
e 335 119
e 335 86
e 335 1
e 336 78
e 336 49
e 336 498
e 336 207
e 336 53
e 336 204
e 336 17
e 336 262
e 337 202
e 338 528
e 339 513
e 340 123
e 340 160
e 340 161
e 340 40
e 340 35
e 340 510
e 340 74
e 340 299
e 340 96
e 340 452
e 341 555
e 341 35
e 341 40
e 342 49
e 343 500
e 344 422
e 344 211
e 344 321
e 345 427
e 345 271
e 345 262
e 345 400
e 345 452
e 345 527
e 345 44
e 345 161
e 345 154
e 345 220
e 345 361
e 345 285
e 345 55
e 345 165
e 345 528
e 346 165
e 347 361
e 347 452
e 347 505
e 347 472
e 347 548
e 348 502
e 348 155
e 348 425
e 348 183
e 348 50
e 348 203
e 348 152
e 348 452
e 349 83
e 349 11
e 349 76
e 349 219
e 349 49
e 349 78
e 349 517
e 350 150
e 350 165
e 350 452
e 351 19
e 352 165
e 353 549
e 353 285
e 353 189
e 353 491
e 353 545
e 353 277
e 353 314
e 353 64
e 353 381
e 353 114
e 353 387
e 353 452
e 354 452
e 354 555
e 355 297
e 356 95
e 356 244
e 356 398
e 356 558
e 356 15
e 356 508
e 357 416
e 357 555
e 357 267
e 357 152
e 357 526
e 357 222
e 357 378
e 357 410
e 357 171
e 357 496
e 357 147
e 357 420
e 357 211
e 357 385
e 358 452
e 359 300
e 360 165
e 361 237
e 361 236
e 361 191
e 361 347
e 361 254
e 361 416
e 361 410
e 361 367
e 361 330
e 361 46
e 361 218
e 361 61
e 361 154
e 361 114
e 361 345
e 361 220
e 361 25
e 361 247
e 361 452
e 361 284
e 361 430
e 361 21
e 361 241
e 361 22
e 361 205
e 361 229
e 361 266
e 361 248
e 361 200
e 361 498
e 361 496
e 361 555
e 361 541
e 361 285
e 361 549
e 361 528
e 361 129
e 362 48
e 362 297
e 363 426
e 363 102
e 363 554
e 363 479
e 363 542
e 363 137
e 363 244
e 364 259
e 365 218
e 365 452
e 365 462
e 365 276
e 365 475
e 365 61
e 365 244
e 365 397
e 365 538
e 365 386
e 365 132
e 365 95
e 365 202
e 366 162
e 367 108
e 367 34
e 367 378
e 367 297
e 367 147
e 367 416
e 367 410
e 367 330
e 367 46
e 367 361
e 367 218
e 367 165
e 367 498
e 367 496
e 367 555
e 367 400
e 367 285
e 367 150
e 367 528
e 367 112
e 368 408
e 368 69
e 368 300
e 368 369
e 368 32
e 368 560
e 368 152
e 368 35
e 368 267
e 368 549
e 368 410
e 368 517
e 368 222
e 368 259
e 368 510
e 368 526
e 368 452
e 369 408
e 369 69
e 369 222
e 369 300
e 369 32
e 369 560
e 369 152
e 369 368
e 369 35
e 370 448
e 370 244
e 371 466
e 371 416
e 372 452
e 372 329
e 372 165
e 373 202
e 374 133
e 375 315
e 375 492
e 376 533
e 376 492
e 376 510
e 376 29
e 376 528
e 376 162
e 376 150
e 377 162
e 378 108
e 378 34
e 378 367
e 378 297
e 378 416
e 378 165
e 378 446
e 378 410
e 378 171
e 378 496
e 378 385
e 378 357
e 378 147
e 379 244
e 380 549
e 380 123
e 380 452
e 380 285
e 380 207
e 380 528
e 380 108
e 380 244
e 380 202
e 380 415
e 381 549
e 381 285
e 381 189
e 381 491
e 381 545
e 381 277
e 381 314
e 381 64
e 381 353
e 381 114
e 381 387
e 381 452
e 382 244
e 382 477
e 383 165
e 384 451
e 384 510
e 384 209
e 384 19
e 385 378
e 385 410
e 385 171
e 385 496
e 385 147
e 385 420
e 385 211
e 385 357
e 386 365
e 386 132
e 387 549
e 387 285
e 387 189
e 387 491
e 387 545
e 387 277
e 387 314
e 387 64
e 387 353
e 387 381
e 387 114
e 387 452
e 387 63
e 388 549
e 389 179
e 389 240
e 389 507
e 389 162
e 390 318
e 391 2
e 391 159
e 391 218
e 391 510
e 391 232
e 391 289
e 391 109
e 391 424
e 391 126
e 391 61
e 391 538
e 391 276
e 392 33
e 392 312
e 393 184
e 393 522
e 393 170
e 394 452
e 395 165
e 396 160
e 396 452
e 396 244
e 397 218
e 397 365
e 397 538
e 397 532
e 397 269
e 397 140
e 397 306
e 397 202
e 397 230
e 397 165
e 397 398
e 397 492
e 397 424
e 397 244
e 398 555
e 398 492
e 398 549
e 398 528
e 398 356
e 398 558
e 398 15
e 398 508
e 398 397
e 398 98
e 398 274
e 398 202
e 398 244
e 398 415
e 398 117
e 398 165
e 398 285
e 400 244
e 400 526
e 400 95
e 400 202
e 400 515
e 400 153
e 400 161
e 400 345
e 400 262
e 400 452
e 400 218
e 400 55
e 400 44
e 400 147
e 400 367
e 400 498
e 400 496
e 400 549
e 400 165
e 400 150
e 400 285
e 400 555
e 400 492
e 400 528
e 401 67
e 401 321
e 401 61
e 402 504
e 402 61
e 403 165
e 404 549
e 405 496
e 405 330
e 405 293
e 405 267
e 405 42
e 405 203
e 405 452
e 405 260
e 405 112
e 405 87
e 405 526
e 406 8
e 406 249
e 406 61
e 407 513
e 408 69
e 408 222
e 408 300
e 408 369
e 408 32
e 408 560
e 408 152
e 408 368
e 408 35
e 409 416
e 410 368
e 410 555
e 410 267
e 410 152
e 410 526
e 410 222
e 410 416
e 410 367
e 410 330
e 410 46
e 410 361
e 410 218
e 410 378
e 410 171
e 410 496
e 410 385
e 410 357
e 410 147
e 411 457
e 411 4
e 412 159
e 413 508
e 413 269
e 414 78
e 415 117
e 415 285
e 415 398
e 415 165
e 415 108
e 415 244
e 415 202
e 415 380
e 416 285
e 416 492
e 416 150
e 416 17
e 416 108
e 416 34
e 416 378
e 416 297
e 416 165
e 416 244
e 416 91
e 416 147
e 416 216
e 416 452
e 416 199
e 416 47
e 416 183
e 416 219
e 416 11
e 416 171
e 416 357
e 416 267
e 416 152
e 416 222
e 416 30
e 416 25
e 416 247
e 416 555
e 416 517
e 416 496
e 416 410
e 416 367
e 416 330
e 416 46
e 416 361
e 416 218
e 416 409
e 416 478
e 416 434
e 416 524
e 416 13
e 416 526
e 416 549
e 416 466
e 416 371
e 417 330
e 418 26
e 418 150
e 419 452
e 419 150
e 420 211
e 420 357
e 420 385
e 421 244
e 422 344
e 422 211
e 422 310
e 422 10
e 422 321
e 422 317
e 423 71
e 423 321
e 424 538
e 424 276
e 424 510
e 424 44
e 424 202
e 424 232
e 424 289
e 424 109
e 424 391
e 424 523
e 424 532
e 424 525
e 424 61
e 424 541
e 424 397
e 424 244
e 424 218
e 425 502
e 425 348
e 425 155
e 425 183
e 425 50
e 425 203
e 425 152
e 425 452
e 426 363
e 426 102
e 426 554
e 426 479
e 426 542
e 426 137
e 426 244
e 427 271
e 427 527
e 427 345
e 428 276
e 428 61
e 429 469
e 429 16
e 430 361
e 431 215
e 431 159
e 432 286
e 432 239
e 432 528
e 433 57
e 433 227
e 433 25
e 433 292
e 433 492
e 433 528
e 434 188
e 434 478
e 434 416
e 434 549
e 435 447
e 436 165
e 437 152
e 438 202
e 439 498
e 440 165
e 441 525
e 441 61
e 442 297
e 443 211
e 443 276
e 443 538
e 444 452
e 445 537
e 445 17
e 445 276
e 445 447
e 445 2
e 445 211
e 445 108
e 445 259
e 445 61
e 445 184
e 445 310
e 445 526
e 445 151
e 445 210
e 446 378
e 447 452
e 447 160
e 447 510
e 447 2
e 447 151
e 447 445
e 447 276
e 447 259
e 447 61
e 447 435
e 447 211
e 447 497
e 447 111
e 447 150
e 447 526
e 447 119
e 447 86
e 447 1
e 447 549
e 447 152
e 447 551
e 448 370
e 448 244
e 449 2
e 450 323
e 450 35
e 451 384
e 451 510
e 451 209
e 451 19
e 452 40
e 452 159
e 452 320
e 452 77
e 452 447
e 452 365
e 452 286
e 452 510
e 452 35
e 452 372
e 452 244
e 452 354
e 452 46
e 452 28
e 452 95
e 452 489
e 452 476
e 452 549
e 452 189
e 452 491
e 452 545
e 452 277
e 452 314
e 452 64
e 452 353
e 452 381
e 452 387
e 452 532
e 452 528
e 452 202
e 452 535
e 452 416
e 452 199
e 452 52
e 452 51
e 452 456
e 452 527
e 452 297
e 452 480
e 452 555
e 452 114
e 452 502
e 452 348
e 452 155
e 452 425
e 452 183
e 452 345
e 452 262
e 452 400
e 452 347
e 452 84
e 452 358
e 452 503
e 452 143
e 452 175
e 452 158
e 452 182
e 452 197
e 452 493
e 452 61
e 452 405
e 452 267
e 452 42
e 452 203
e 452 350
e 452 50
e 452 361
e 452 36
e 452 419
e 452 150
e 452 492
e 452 123
e 452 380
e 452 259
e 452 285
e 452 181
e 452 163
e 452 396
e 452 160
e 452 1
e 452 96
e 452 340
e 452 526
e 452 368
e 452 272
e 452 544
e 452 556
e 452 444
e 452 394
e 452 280
e 452 58
e 452 501
e 452 211
e 452 154
e 452 165
e 452 161
e 452 44
e 452 152
e 452 497
e 453 309
e 454 492
e 455 498
e 456 452
e 457 202
e 457 9
e 457 196
e 457 244
e 457 411
e 457 4
e 458 202
e 459 244
e 460 150
e 461 519
e 461 211
e 462 365
e 462 316
e 462 61
e 462 521
e 462 286
e 462 170
e 463 202
e 464 146
e 464 551
e 464 218
e 464 555
e 464 267
e 464 152
e 465 15
e 465 487
e 465 68
e 466 267
e 466 371
e 466 416
e 467 165
e 468 107
e 468 244
e 469 321
e 469 429
e 470 244
e 471 101
e 471 244
e 472 112
e 472 505
e 472 548
e 472 347
e 473 538
e 473 234
e 473 511
e 473 38
e 473 61
e 474 202
e 475 244
e 475 365
e 475 95
e 476 285
e 476 452
e 476 90
e 477 382
e 478 434
e 478 416
e 478 549
e 479 363
e 479 426
e 479 102
e 479 554
e 479 542
e 479 137
e 479 244
e 480 264
e 480 132
e 480 497
e 480 115
e 480 161
e 480 259
e 480 452
e 480 297
e 480 555
e 480 285
e 481 202
e 482 61
e 482 512
e 482 246
e 482 483
e 482 276
e 483 319
e 483 286
e 483 61
e 483 218
e 483 246
e 483 482
e 483 276
e 484 202
e 485 99
e 485 85
e 485 164
e 485 178
e 485 335
e 485 135
e 485 35
e 485 119
e 485 86
e 485 1
e 486 492
e 487 465
e 487 68
e 487 15
e 487 159
e 488 254
e 489 95
e 489 491
e 489 526
e 489 452
e 490 528
e 491 489
e 491 526
e 491 549
e 491 285
e 491 545
e 491 277
e 491 314
e 491 64
e 491 353
e 491 381
e 491 114
e 491 387
e 491 452
e 491 189
e 492 506
e 492 167
e 492 251
e 492 454
e 492 486
e 492 20
e 492 416
e 492 398
e 492 230
e 492 543
e 492 375
e 492 510
e 492 62
e 492 73
e 492 325
e 492 202
e 492 255
e 492 207
e 492 147
e 492 496
e 492 376
e 492 533
e 492 452
e 492 152
e 492 70
e 492 397
e 492 433
e 492 57
e 492 227
e 492 25
e 492 292
e 492 549
e 492 165
e 492 150
e 492 400
e 492 285
e 492 555
e 492 44
e 492 244
e 492 528
e 493 452
e 494 285
e 495 118
e 495 150
e 496 17
e 496 108
e 496 34
e 496 297
e 496 161
e 496 202
e 496 97
e 496 405
e 496 82
e 496 142
e 496 188
e 496 219
e 496 267
e 496 152
e 496 526
e 496 222
e 496 416
e 496 330
e 496 46
e 496 218
e 496 492
e 496 378
e 496 410
e 496 171
e 496 385
e 496 357
e 496 147
e 496 361
e 496 541
e 496 549
e 496 165
e 496 367
e 496 498
e 496 400
e 496 285
e 496 150
e 496 148
e 496 555
e 496 528
e 497 480
e 497 115
e 497 264
e 497 132
e 497 244
e 497 218
e 497 259
e 497 510
e 497 276
e 497 61
e 497 447
e 497 1
e 497 452
e 497 35
e 498 202
e 498 152
e 498 3
e 498 361
e 498 541
e 498 549
e 498 165
e 498 367
e 498 496
e 498 555
e 498 400
e 498 285
e 498 150
e 498 528
e 498 455
e 498 439
e 498 336
e 498 78
e 498 49
e 498 207
e 498 53
e 498 204
e 498 17
e 498 262
e 499 202
e 500 343
e 501 211
e 501 161
e 501 452
e 502 348
e 502 155
e 502 425
e 502 183
e 502 50
e 502 203
e 502 152
e 502 452
e 503 452
e 504 402
e 504 61
e 505 472
e 505 548
e 505 347
e 506 492
e 506 149
e 506 218
e 507 179
e 507 240
e 507 389
e 507 162
e 508 244
e 508 356
e 508 398
e 508 558
e 508 15
e 508 269
e 508 413
e 509 285
e 510 424
e 510 152
e 510 285
e 510 17
e 510 452
e 510 447
e 510 161
e 510 391
e 510 159
e 510 218
e 510 492
e 510 528
e 510 497
e 510 368
e 510 259
e 510 74
e 510 299
e 510 340
e 510 376
e 510 24
e 510 148
e 510 211
e 510 150
e 510 451
e 510 384
e 510 209
e 510 19
e 510 549
e 510 208
e 510 61
e 510 305
e 510 44
e 510 165
e 510 538
e 510 244
e 510 276
e 511 234
e 511 473
e 511 38
e 512 44
e 512 482
e 512 177
e 512 176
e 512 538
e 513 339
e 513 407
e 514 46
e 515 400
e 516 211
e 516 307
e 517 416
e 517 555
e 517 83
e 517 11
e 517 76
e 517 349
e 517 219
e 517 49
e 517 78
e 517 222
e 517 368
e 518 106
e 518 79
e 519 70
e 519 461
e 521 31
e 521 61
e 521 462
e 521 170
e 521 286
e 521 274
e 522 393
e 523 424
e 524 416
e 524 549
e 524 13
e 524 526
e 525 441
e 525 61
e 525 424
e 525 194
e 526 218
e 526 538
e 526 61
e 526 244
e 526 202
e 526 400
e 526 285
e 526 44
e 526 489
e 526 491
e 526 65
e 526 528
e 526 122
e 526 204
e 526 114
e 526 154
e 526 496
e 526 410
e 526 171
e 526 357
e 526 555
e 526 152
e 526 222
e 526 267
e 526 42
e 526 203
e 526 452
e 526 368
e 526 416
e 526 549
e 526 524
e 526 13
e 526 161
e 526 151
e 526 445
e 526 259
e 526 447
e 526 150
e 526 551
e 526 208
e 526 405
e 526 87
e 527 452
e 527 427
e 527 271
e 527 345
e 528 338
e 528 202
e 528 398
e 528 108
e 528 452
e 528 526
e 528 203
e 528 114
e 528 218
e 528 432
e 528 27
e 528 303
e 528 221
e 528 88
e 528 5
e 528 490
e 528 270
e 528 510
e 528 190
e 528 147
e 528 361
e 528 541
e 528 276
e 528 123
e 528 367
e 528 498
e 528 125
e 528 56
e 528 282
e 528 233
e 528 376
e 528 345
e 528 433
e 528 57
e 528 227
e 528 25
e 528 292
e 528 496
e 528 533
e 528 99
e 528 35
e 528 380
e 528 165
e 528 150
e 528 400
e 528 285
e 528 555
e 528 156
e 528 136
e 528 492
e 528 561
e 528 244
e 528 44
e 528 549
e 528 329
e 529 244
e 530 128
e 530 259
e 531 19
e 532 452
e 532 424
e 532 397
e 533 207
e 533 376
e 533 492
e 533 150
e 533 528
e 534 49
e 535 452
e 536 147
e 537 445
e 537 259
e 538 424
e 538 259
e 538 473
e 538 526
e 538 186
e 538 365
e 538 397
e 538 276
e 538 194
e 538 62
e 538 443
e 538 512
e 538 391
e 538 61
e 538 510
e 539 202
e 540 202
e 541 361
e 541 498
e 541 496
e 541 555
e 541 285
e 541 549
e 541 528
e 541 61
e 541 424
e 542 363
e 542 426
e 542 102
e 542 554
e 542 479
e 542 137
e 542 244
e 543 492
e 544 452
e 545 549
e 545 285
e 545 189
e 545 491
e 545 277
e 545 314
e 545 64
e 545 353
e 545 381
e 545 114
e 545 387
e 545 452
e 545 214
e 546 326
e 546 150
e 547 285
e 548 505
e 548 472
e 548 347
e 549 206
e 549 380
e 549 17
e 549 244
e 549 398
e 549 28
e 549 189
e 549 491
e 549 545
e 549 277
e 549 314
e 549 64
e 549 353
e 549 381
e 549 114
e 549 387
e 549 452
e 549 202
e 549 89
e 549 257
e 549 322
e 549 388
e 549 188
e 549 404
e 549 368
e 549 147
e 549 361
e 549 498
e 549 496
e 549 541
e 549 123
e 549 125
e 549 478
e 549 434
e 549 524
e 549 13
e 549 526
e 549 416
e 549 211
e 549 210
e 549 208
e 549 510
e 549 447
e 549 1
e 549 99
e 549 161
e 549 152
e 549 165
e 549 150
e 549 400
e 549 285
e 549 555
e 549 492
e 549 44
e 549 528
e 549 329
e 550 285
e 551 464
e 551 146
e 551 526
e 551 447
e 552 165
e 553 104
e 553 192
e 553 46
e 553 330
e 554 363
e 554 426
e 554 102
e 554 479
e 554 542
e 554 137
e 554 244
e 555 202
e 555 244
e 555 398
e 555 354
e 555 173
e 555 161
e 555 259
e 555 452
e 555 297
e 555 480
e 555 83
e 555 410
e 555 171
e 555 357
e 555 267
e 555 152
e 555 526
e 555 464
e 555 30
e 555 222
e 555 416
e 555 517
e 555 341
e 555 218
e 555 147
e 555 361
e 555 541
e 555 367
e 555 498
e 555 113
e 555 496
e 555 1
e 555 549
e 555 165
e 555 150
e 555 400
e 555 285
e 555 492
e 555 528
e 556 452
e 557 92
e 558 244
e 558 356
e 558 398
e 558 15
e 558 508
e 559 202
e 560 408
e 560 69
e 560 222
e 560 300
e 560 369
e 560 32
e 560 152
e 560 368
e 560 35
e 561 44
e 561 528
e 561 244
